HUN,8,6,370
2,8,1,29,0,16,5,11,4,16,3,30
0,30,2,7,1,8,5,24,3,22,4,18
1,8,0,23,2,26,3,7,5,27,4,17
0,25,2,28,1,22,3,27,5,8,4,30
1,18,2,19,0,24,5,1,3,22,4,28
2,28,1,24,0,6,4,22,5,7,3,14
0,28,1,14,2,15,3,14,5,8,4,22
0,12,2,19,1,26,5,1,3,12,4,7
